27 29 1 24 92 34 26 28 33 57 82 19 71 90 21 
49 54 
67 38 86 83 13 12 
98 
65 14 23 76 80 52 
2 31 64 72 30 6 8 43 51 81 47 42 87 
74 
62 63 100 95 60 58 37 91 73 10 79 77 
35 4 56 84 
69 66 89 41 96 
53 9 
5 
20 88 
16 
75 97 7 46 70 11 
22 93 61 32 99 94 36 68 55 3 18 39 59 44 85 40 45 25 15 17 50 48 78 

